63 51 32 25 8 22 62 24 17 1 21 29 58 33 45 35 12 48 1 52 59 23 56 34 1 53 37 49 1 44 31 39 5 27 14 1 50 15 13 10 3 42 2 1 18 57 30 26 60 11 1 38 9 36 28 7 1 41 54 16 19 6 20 46 40 43 4 1 55 61 47 1 63 51 32 25 8 22 62 24 17 1  (1028)
Cost 1540.37

